\ LP format - for model browsing. Use MPS format to capture full model detail.
\ Signature: 0x3e9648b5a37a6304
Minimize
  3 x(0,1) + 5 x(0,2) + 48 x(0,3) + 48 x(0,4) + 8 x(0,5) + 8 x(0,6)
   + 5 x(0,7) + 5 x(0,8) + 3 x(0,9) + 3 x(0,10) + 3 x(0,12) + 5 x(0,13)
   + 8 x(0,14) + 8 x(0,15) + 5 x(0,16) + 3 x(1,0) + 3 x(1,2) + 48 x(1,3)
   + 48 x(1,4) + 8 x(1,5) + 8 x(1,6) + 5 x(1,7) + 5 x(1,8) + 3 x(1,11)
   + 3 x(1,13) + 8 x(1,14) + 8 x(1,15) + 5 x(1,16) + 5 x(2,0) + 3 x(2,1)
   + 72 x(2,3) + 72 x(2,4) + 48 x(2,5) + 48 x(2,6) + 24 x(2,7) + 24 x(2,8)
   + 3 x(2,9) + 3 x(2,10) + 5 x(2,11) + 3 x(2,12) + 48 x(2,14) + 48 x(2,15)
   + 24 x(2,16) + 48 x(3,0) + 48 x(3,1) + 74 x(3,2) + 6 x(3,5) + 6 x(3,6)
   + 12 x(3,7) + 12 x(3,8) + 48 x(3,9) + 48 x(3,10) + 48 x(3,11)
   + 48 x(3,12) + 74 x(3,13) + 6 x(3,14) + 6 x(3,15) + 12 x(3,16)
   + 48 x(4,0) + 48 x(4,1) + 74 x(4,2) + 6 x(4,5) + 6 x(4,6) + 12 x(4,7)
   + 12 x(4,8) + 48 x(4,9) + 48 x(4,10) + 48 x(4,11) + 48 x(4,12)
   + 74 x(4,13) + 6 x(4,14) + 6 x(4,15) + 12 x(4,16) + 8 x(5,0) + 8 x(5,1)
   + 50 x(5,2) + 6 x(5,3) + 6 x(5,4) + 8 x(5,7) + 8 x(5,8) + 8 x(5,9)
   + 8 x(5,10) + 8 x(5,11) + 8 x(5,12) + 50 x(5,13) + 8 x(5,16) + 8 x(6,0)
   + 8 x(6,1) + 50 x(6,2) + 6 x(6,3) + 6 x(6,4) + 8 x(6,7) + 8 x(6,8)
   + 8 x(6,9) + 8 x(6,10) + 8 x(6,11) + 8 x(6,12) + 50 x(6,13) + 8 x(6,16)
   + 5 x(7,0) + 5 x(7,1) + 26 x(7,2) + 12 x(7,3) + 12 x(7,4) + 8 x(7,5)
   + 8 x(7,6) + 5 x(7,9) + 5 x(7,10) + 5 x(7,11) + 5 x(7,12) + 26 x(7,13)
   + 8 x(7,14) + 8 x(7,15) + 5 x(8,0) + 5 x(8,1) + 26 x(8,2) + 12 x(8,3)
   + 12 x(8,4) + 8 x(8,5) + 8 x(8,6) + 5 x(8,9) + 5 x(8,10) + 5 x(8,11)
   + 5 x(8,12) + 26 x(8,13) + 8 x(8,14) + 8 x(8,15) + 3 x(9,0) + 3 x(9,2)
   + 48 x(9,3) + 48 x(9,4) + 8 x(9,5) + 8 x(9,6) + 5 x(9,7) + 5 x(9,8)
   + 3 x(9,11) + 3 x(9,13) + 8 x(9,14) + 8 x(9,15) + 5 x(9,16) + 3 x(10,0)
   + 3 x(10,2) + 48 x(10,3) + 48 x(10,4) + 8 x(10,5) + 8 x(10,6)
   + 5 x(10,7) + 5 x(10,8) + 3 x(10,11) + 3 x(10,13) + 8 x(10,14)
   + 8 x(10,15) + 5 x(10,16) + 3 x(11,1) + 5 x(11,2) + 48 x(11,3)
   + 48 x(11,4) + 8 x(11,5) + 8 x(11,6) + 5 x(11,7) + 5 x(11,8) + 3 x(11,9)
   + 3 x(11,10) + 3 x(11,12) + 5 x(11,13) + 8 x(11,14) + 8 x(11,15)
   + 5 x(11,16) + 3 x(12,0) + 3 x(12,2) + 48 x(12,3) + 48 x(12,4)
   + 8 x(12,5) + 8 x(12,6) + 5 x(12,7) + 5 x(12,8) + 3 x(12,11)
   + 3 x(12,13) + 8 x(12,14) + 8 x(12,15) + 5 x(12,16) + 5 x(13,0)
   + 3 x(13,1) + 72 x(13,3) + 72 x(13,4) + 48 x(13,5) + 48 x(13,6)
   + 24 x(13,7) + 24 x(13,8) + 3 x(13,9) + 3 x(13,10) + 5 x(13,11)
   + 3 x(13,12) + 48 x(13,14) + 48 x(13,15) + 24 x(13,16) + 8 x(14,0)
   + 8 x(14,1) + 50 x(14,2) + 6 x(14,3) + 6 x(14,4) + 8 x(14,7) + 8 x(14,8)
   + 8 x(14,9) + 8 x(14,10) + 8 x(14,11) + 8 x(14,12) + 50 x(14,13)
   + 8 x(14,16) + 8 x(15,0) + 8 x(15,1) + 50 x(15,2) + 6 x(15,3)
   + 6 x(15,4) + 8 x(15,7) + 8 x(15,8) + 8 x(15,9) + 8 x(15,10)
   + 8 x(15,11) + 8 x(15,12) + 50 x(15,13) + 8 x(15,16) + 5 x(16,0)
   + 5 x(16,1) + 26 x(16,2) + 12 x(16,3) + 12 x(16,4) + 8 x(16,5)
   + 8 x(16,6) + 5 x(16,9) + 5 x(16,10) + 5 x(16,11) + 5 x(16,12)
   + 26 x(16,13) + 8 x(16,14) + 8 x(16,15)
Subject To
 out(0): x(0,1) + x(0,2) + x(0,3) + x(0,4) + x(0,5) + x(0,6) + x(0,7)
   + x(0,8) + x(0,9) + x(0,10) + x(0,11) + x(0,12) + x(0,13) + x(0,14)
   + x(0,15) + x(0,16) = 1
 out(1): x(1,0) + x(1,2) + x(1,3) + x(1,4) + x(1,5) + x(1,6) + x(1,7)
   + x(1,8) + x(1,9) + x(1,10) + x(1,11) + x(1,12) + x(1,13) + x(1,14)
   + x(1,15) + x(1,16) = 1
 out(2): x(2,0) + x(2,1) + x(2,3) + x(2,4) + x(2,5) + x(2,6) + x(2,7)
   + x(2,8) + x(2,9) + x(2,10) + x(2,11) + x(2,12) + x(2,13) + x(2,14)
   + x(2,15) + x(2,16) = 1
 out(3): x(3,0) + x(3,1) + x(3,2) + x(3,4) + x(3,5) + x(3,6) + x(3,7)
   + x(3,8) + x(3,9) + x(3,10) + x(3,11) + x(3,12) + x(3,13) + x(3,14)
   + x(3,15) + x(3,16) = 1
 out(4): x(4,0) + x(4,1) + x(4,2) + x(4,3) + x(4,5) + x(4,6) + x(4,7)
   + x(4,8) + x(4,9) + x(4,10) + x(4,11) + x(4,12) + x(4,13) + x(4,14)
   + x(4,15) + x(4,16) = 1
 out(5): x(5,0) + x(5,1) + x(5,2) + x(5,3) + x(5,4) + x(5,6) + x(5,7)
   + x(5,8) + x(5,9) + x(5,10) + x(5,11) + x(5,12) + x(5,13) + x(5,14)
   + x(5,15) + x(5,16) = 1
 out(6): x(6,0) + x(6,1) + x(6,2) + x(6,3) + x(6,4) + x(6,5) + x(6,7)
   + x(6,8) + x(6,9) + x(6,10) + x(6,11) + x(6,12) + x(6,13) + x(6,14)
   + x(6,15) + x(6,16) = 1
 out(7): x(7,0) + x(7,1) + x(7,2) + x(7,3) + x(7,4) + x(7,5) + x(7,6)
   + x(7,8) + x(7,9) + x(7,10) + x(7,11) + x(7,12) + x(7,13) + x(7,14)
   + x(7,15) + x(7,16) = 1
 out(8): x(8,0) + x(8,1) + x(8,2) + x(8,3) + x(8,4) + x(8,5) + x(8,6)
   + x(8,7) + x(8,9) + x(8,10) + x(8,11) + x(8,12) + x(8,13) + x(8,14)
   + x(8,15) + x(8,16) = 1
 out(9): x(9,0) + x(9,1) + x(9,2) + x(9,3) + x(9,4) + x(9,5) + x(9,6)
   + x(9,7) + x(9,8) + x(9,10) + x(9,11) + x(9,12) + x(9,13) + x(9,14)
   + x(9,15) + x(9,16) = 1
 out(10): x(10,0) + x(10,1) + x(10,2) + x(10,3) + x(10,4) + x(10,5)
   + x(10,6) + x(10,7) + x(10,8) + x(10,9) + x(10,11) + x(10,12) + x(10,13)
   + x(10,14) + x(10,15) + x(10,16) = 1
 out(11): x(11,0) + x(11,1) + x(11,2) + x(11,3) + x(11,4) + x(11,5)
   + x(11,6) + x(11,7) + x(11,8) + x(11,9) + x(11,10) + x(11,12) + x(11,13)
   + x(11,14) + x(11,15) + x(11,16) = 1
 out(12): x(12,0) + x(12,1) + x(12,2) + x(12,3) + x(12,4) + x(12,5)
   + x(12,6) + x(12,7) + x(12,8) + x(12,9) + x(12,10) + x(12,11) + x(12,13)
   + x(12,14) + x(12,15) + x(12,16) = 1
 out(13): x(13,0) + x(13,1) + x(13,2) + x(13,3) + x(13,4) + x(13,5)
   + x(13,6) + x(13,7) + x(13,8) + x(13,9) + x(13,10) + x(13,11) + x(13,12)
   + x(13,14) + x(13,15) + x(13,16) = 1
 out(14): x(14,0) + x(14,1) + x(14,2) + x(14,3) + x(14,4) + x(14,5)
   + x(14,6) + x(14,7) + x(14,8) + x(14,9) + x(14,10) + x(14,11) + x(14,12)
   + x(14,13) + x(14,15) + x(14,16) = 1
 out(15): x(15,0) + x(15,1) + x(15,2) + x(15,3) + x(15,4) + x(15,5)
   + x(15,6) + x(15,7) + x(15,8) + x(15,9) + x(15,10) + x(15,11) + x(15,12)
   + x(15,13) + x(15,14) + x(15,16) = 1
 out(16): x(16,0) + x(16,1) + x(16,2) + x(16,3) + x(16,4) + x(16,5)
   + x(16,6) + x(16,7) + x(16,8) + x(16,9) + x(16,10) + x(16,11) + x(16,12)
   + x(16,13) + x(16,14) + x(16,15) = 1
 out(0): x(1,0) + x(2,0) + x(3,0) + x(4,0) + x(5,0) + x(6,0) + x(7,0)
   + x(8,0) + x(9,0) + x(10,0) + x(11,0) + x(12,0) + x(13,0) + x(14,0)
   + x(15,0) + x(16,0) = 1
 out(1): x(0,1) + x(2,1) + x(3,1) + x(4,1) + x(5,1) + x(6,1) + x(7,1)
   + x(8,1) + x(9,1) + x(10,1) + x(11,1) + x(12,1) + x(13,1) + x(14,1)
   + x(15,1) + x(16,1) = 1
 out(2): x(0,2) + x(1,2) + x(3,2) + x(4,2) + x(5,2) + x(6,2) + x(7,2)
   + x(8,2) + x(9,2) + x(10,2) + x(11,2) + x(12,2) + x(13,2) + x(14,2)
   + x(15,2) + x(16,2) = 1
 out(3): x(0,3) + x(1,3) + x(2,3) + x(4,3) + x(5,3) + x(6,3) + x(7,3)
   + x(8,3) + x(9,3) + x(10,3) + x(11,3) + x(12,3) + x(13,3) + x(14,3)
   + x(15,3) + x(16,3) = 1
 out(4): x(0,4) + x(1,4) + x(2,4) + x(3,4) + x(5,4) + x(6,4) + x(7,4)
   + x(8,4) + x(9,4) + x(10,4) + x(11,4) + x(12,4) + x(13,4) + x(14,4)
   + x(15,4) + x(16,4) = 1
 out(5): x(0,5) + x(1,5) + x(2,5) + x(3,5) + x(4,5) + x(6,5) + x(7,5)
   + x(8,5) + x(9,5) + x(10,5) + x(11,5) + x(12,5) + x(13,5) + x(14,5)
   + x(15,5) + x(16,5) = 1
 out(6): x(0,6) + x(1,6) + x(2,6) + x(3,6) + x(4,6) + x(5,6) + x(7,6)
   + x(8,6) + x(9,6) + x(10,6) + x(11,6) + x(12,6) + x(13,6) + x(14,6)
   + x(15,6) + x(16,6) = 1
 out(7): x(0,7) + x(1,7) + x(2,7) + x(3,7) + x(4,7) + x(5,7) + x(6,7)
   + x(8,7) + x(9,7) + x(10,7) + x(11,7) + x(12,7) + x(13,7) + x(14,7)
   + x(15,7) + x(16,7) = 1
 out(8): x(0,8) + x(1,8) + x(2,8) + x(3,8) + x(4,8) + x(5,8) + x(6,8)
   + x(7,8) + x(9,8) + x(10,8) + x(11,8) + x(12,8) + x(13,8) + x(14,8)
   + x(15,8) + x(16,8) = 1
 out(9): x(0,9) + x(1,9) + x(2,9) + x(3,9) + x(4,9) + x(5,9) + x(6,9)
   + x(7,9) + x(8,9) + x(10,9) + x(11,9) + x(12,9) + x(13,9) + x(14,9)
   + x(15,9) + x(16,9) = 1
 out(10): x(0,10) + x(1,10) + x(2,10) + x(3,10) + x(4,10) + x(5,10)
   + x(6,10) + x(7,10) + x(8,10) + x(9,10) + x(11,10) + x(12,10) + x(13,10)
   + x(14,10) + x(15,10) + x(16,10) = 1
 out(11): x(0,11) + x(1,11) + x(2,11) + x(3,11) + x(4,11) + x(5,11)
   + x(6,11) + x(7,11) + x(8,11) + x(9,11) + x(10,11) + x(12,11) + x(13,11)
   + x(14,11) + x(15,11) + x(16,11) = 1
 out(12): x(0,12) + x(1,12) + x(2,12) + x(3,12) + x(4,12) + x(5,12)
   + x(6,12) + x(7,12) + x(8,12) + x(9,12) + x(10,12) + x(11,12) + x(13,12)
   + x(14,12) + x(15,12) + x(16,12) = 1
 out(13): x(0,13) + x(1,13) + x(2,13) + x(3,13) + x(4,13) + x(5,13)
   + x(6,13) + x(7,13) + x(8,13) + x(9,13) + x(10,13) + x(11,13) + x(12,13)
   + x(14,13) + x(15,13) + x(16,13) = 1
 out(14): x(0,14) + x(1,14) + x(2,14) + x(3,14) + x(4,14) + x(5,14)
   + x(6,14) + x(7,14) + x(8,14) + x(9,14) + x(10,14) + x(11,14) + x(12,14)
   + x(13,14) + x(15,14) + x(16,14) = 1
 out(15): x(0,15) + x(1,15) + x(2,15) + x(3,15) + x(4,15) + x(5,15)
   + x(6,15) + x(7,15) + x(8,15) + x(9,15) + x(10,15) + x(11,15) + x(12,15)
   + x(13,15) + x(14,15) + x(16,15) = 1
 out(16): x(0,16) + x(1,16) + x(2,16) + x(3,16) + x(4,16) + x(5,16)
   + x(6,16) + x(7,16) + x(8,16) + x(9,16) + x(10,16) + x(11,16) + x(12,16)
   + x(13,16) + x(14,16) + x(15,16) = 1
 u(0): u(0) = 0
 subtour(1,2): - u(1) - 16 x(1,2) + u(2) >= -15
 subtour(1,3): - u(1) - 16 x(1,3) + u(3) >= -15
 subtour(1,4): - u(1) - 16 x(1,4) + u(4) >= -15
 subtour(1,5): - u(1) - 16 x(1,5) + u(5) >= -15
 subtour(1,6): - u(1) - 16 x(1,6) + u(6) >= -15
 subtour(1,7): - u(1) - 16 x(1,7) + u(7) >= -15
 subtour(1,8): - u(1) - 16 x(1,8) + u(8) >= -15
 subtour(1,9): - u(1) - 16 x(1,9) + u(9) >= -15
 subtour(1,10): - u(1) - 16 x(1,10) + u(10) >= -15
 subtour(1,11): - u(1) - 16 x(1,11) + u(11) >= -15
 subtour(1,12): - u(1) - 16 x(1,12) + u(12) >= -15
 subtour(1,13): - u(1) - 16 x(1,13) + u(13) >= -15
 subtour(1,14): - u(1) - 16 x(1,14) + u(14) >= -15
 subtour(1,15): - u(1) - 16 x(1,15) + u(15) >= -15
 subtour(1,16): - u(1) - 16 x(1,16) + u(16) >= -15
 subtour(2,1): u(1) - u(2) - 16 x(2,1) >= -15
 subtour(2,3): - u(2) - 16 x(2,3) + u(3) >= -15
 subtour(2,4): - u(2) - 16 x(2,4) + u(4) >= -15
 subtour(2,5): - u(2) - 16 x(2,5) + u(5) >= -15
 subtour(2,6): - u(2) - 16 x(2,6) + u(6) >= -15
 subtour(2,7): - u(2) - 16 x(2,7) + u(7) >= -15
 subtour(2,8): - u(2) - 16 x(2,8) + u(8) >= -15
 subtour(2,9): - u(2) - 16 x(2,9) + u(9) >= -15
 subtour(2,10): - u(2) - 16 x(2,10) + u(10) >= -15
 subtour(2,11): - u(2) - 16 x(2,11) + u(11) >= -15
 subtour(2,12): - u(2) - 16 x(2,12) + u(12) >= -15
 subtour(2,13): - u(2) - 16 x(2,13) + u(13) >= -15
 subtour(2,14): - u(2) - 16 x(2,14) + u(14) >= -15
 subtour(2,15): - u(2) - 16 x(2,15) + u(15) >= -15
 subtour(2,16): - u(2) - 16 x(2,16) + u(16) >= -15
 subtour(3,1): u(1) - u(3) - 16 x(3,1) >= -15
 subtour(3,2): u(2) - u(3) - 16 x(3,2) >= -15
 subtour(3,4): - u(3) - 16 x(3,4) + u(4) >= -15
 subtour(3,5): - u(3) - 16 x(3,5) + u(5) >= -15
 subtour(3,6): - u(3) - 16 x(3,6) + u(6) >= -15
 subtour(3,7): - u(3) - 16 x(3,7) + u(7) >= -15
 subtour(3,8): - u(3) - 16 x(3,8) + u(8) >= -15
 subtour(3,9): - u(3) - 16 x(3,9) + u(9) >= -15
 subtour(3,10): - u(3) - 16 x(3,10) + u(10) >= -15
 subtour(3,11): - u(3) - 16 x(3,11) + u(11) >= -15
 subtour(3,12): - u(3) - 16 x(3,12) + u(12) >= -15
 subtour(3,13): - u(3) - 16 x(3,13) + u(13) >= -15
 subtour(3,14): - u(3) - 16 x(3,14) + u(14) >= -15
 subtour(3,15): - u(3) - 16 x(3,15) + u(15) >= -15
 subtour(3,16): - u(3) - 16 x(3,16) + u(16) >= -15
 subtour(4,1): u(1) - u(4) - 16 x(4,1) >= -15
 subtour(4,2): u(2) - u(4) - 16 x(4,2) >= -15
 subtour(4,3): u(3) - u(4) - 16 x(4,3) >= -15
 subtour(4,5): - u(4) - 16 x(4,5) + u(5) >= -15
 subtour(4,6): - u(4) - 16 x(4,6) + u(6) >= -15
 subtour(4,7): - u(4) - 16 x(4,7) + u(7) >= -15
 subtour(4,8): - u(4) - 16 x(4,8) + u(8) >= -15
 subtour(4,9): - u(4) - 16 x(4,9) + u(9) >= -15
 subtour(4,10): - u(4) - 16 x(4,10) + u(10) >= -15
 subtour(4,11): - u(4) - 16 x(4,11) + u(11) >= -15
 subtour(4,12): - u(4) - 16 x(4,12) + u(12) >= -15
 subtour(4,13): - u(4) - 16 x(4,13) + u(13) >= -15
 subtour(4,14): - u(4) - 16 x(4,14) + u(14) >= -15
 subtour(4,15): - u(4) - 16 x(4,15) + u(15) >= -15
 subtour(4,16): - u(4) - 16 x(4,16) + u(16) >= -15
 subtour(5,1): u(1) - u(5) - 16 x(5,1) >= -15
 subtour(5,2): u(2) - u(5) - 16 x(5,2) >= -15
 subtour(5,3): u(3) - u(5) - 16 x(5,3) >= -15
 subtour(5,4): u(4) - u(5) - 16 x(5,4) >= -15
 subtour(5,6): - u(5) - 16 x(5,6) + u(6) >= -15
 subtour(5,7): - u(5) - 16 x(5,7) + u(7) >= -15
 subtour(5,8): - u(5) - 16 x(5,8) + u(8) >= -15
 subtour(5,9): - u(5) - 16 x(5,9) + u(9) >= -15
 subtour(5,10): - u(5) - 16 x(5,10) + u(10) >= -15
 subtour(5,11): - u(5) - 16 x(5,11) + u(11) >= -15
 subtour(5,12): - u(5) - 16 x(5,12) + u(12) >= -15
 subtour(5,13): - u(5) - 16 x(5,13) + u(13) >= -15
 subtour(5,14): - u(5) - 16 x(5,14) + u(14) >= -15
 subtour(5,15): - u(5) - 16 x(5,15) + u(15) >= -15
 subtour(5,16): - u(5) - 16 x(5,16) + u(16) >= -15
 subtour(6,1): u(1) - u(6) - 16 x(6,1) >= -15
 subtour(6,2): u(2) - u(6) - 16 x(6,2) >= -15
 subtour(6,3): u(3) - u(6) - 16 x(6,3) >= -15
 subtour(6,4): u(4) - u(6) - 16 x(6,4) >= -15
 subtour(6,5): u(5) - u(6) - 16 x(6,5) >= -15
 subtour(6,7): - u(6) - 16 x(6,7) + u(7) >= -15
 subtour(6,8): - u(6) - 16 x(6,8) + u(8) >= -15
 subtour(6,9): - u(6) - 16 x(6,9) + u(9) >= -15
 subtour(6,10): - u(6) - 16 x(6,10) + u(10) >= -15
 subtour(6,11): - u(6) - 16 x(6,11) + u(11) >= -15
 subtour(6,12): - u(6) - 16 x(6,12) + u(12) >= -15
 subtour(6,13): - u(6) - 16 x(6,13) + u(13) >= -15
 subtour(6,14): - u(6) - 16 x(6,14) + u(14) >= -15
 subtour(6,15): - u(6) - 16 x(6,15) + u(15) >= -15
 subtour(6,16): - u(6) - 16 x(6,16) + u(16) >= -15
 subtour(7,1): u(1) - u(7) - 16 x(7,1) >= -15
 subtour(7,2): u(2) - u(7) - 16 x(7,2) >= -15
 subtour(7,3): u(3) - u(7) - 16 x(7,3) >= -15
 subtour(7,4): u(4) - u(7) - 16 x(7,4) >= -15
 subtour(7,5): u(5) - u(7) - 16 x(7,5) >= -15
 subtour(7,6): u(6) - u(7) - 16 x(7,6) >= -15
 subtour(7,8): - u(7) - 16 x(7,8) + u(8) >= -15
 subtour(7,9): - u(7) - 16 x(7,9) + u(9) >= -15
 subtour(7,10): - u(7) - 16 x(7,10) + u(10) >= -15
 subtour(7,11): - u(7) - 16 x(7,11) + u(11) >= -15
 subtour(7,12): - u(7) - 16 x(7,12) + u(12) >= -15
 subtour(7,13): - u(7) - 16 x(7,13) + u(13) >= -15
 subtour(7,14): - u(7) - 16 x(7,14) + u(14) >= -15
 subtour(7,15): - u(7) - 16 x(7,15) + u(15) >= -15
 subtour(7,16): - u(7) - 16 x(7,16) + u(16) >= -15
 subtour(8,1): u(1) - u(8) - 16 x(8,1) >= -15
 subtour(8,2): u(2) - u(8) - 16 x(8,2) >= -15
 subtour(8,3): u(3) - u(8) - 16 x(8,3) >= -15
 subtour(8,4): u(4) - u(8) - 16 x(8,4) >= -15
 subtour(8,5): u(5) - u(8) - 16 x(8,5) >= -15
 subtour(8,6): u(6) - u(8) - 16 x(8,6) >= -15
 subtour(8,7): u(7) - u(8) - 16 x(8,7) >= -15
 subtour(8,9): - u(8) - 16 x(8,9) + u(9) >= -15
 subtour(8,10): - u(8) - 16 x(8,10) + u(10) >= -15
 subtour(8,11): - u(8) - 16 x(8,11) + u(11) >= -15
 subtour(8,12): - u(8) - 16 x(8,12) + u(12) >= -15
 subtour(8,13): - u(8) - 16 x(8,13) + u(13) >= -15
 subtour(8,14): - u(8) - 16 x(8,14) + u(14) >= -15
 subtour(8,15): - u(8) - 16 x(8,15) + u(15) >= -15
 subtour(8,16): - u(8) - 16 x(8,16) + u(16) >= -15
 subtour(9,1): u(1) - u(9) - 16 x(9,1) >= -15
 subtour(9,2): u(2) - u(9) - 16 x(9,2) >= -15
 subtour(9,3): u(3) - u(9) - 16 x(9,3) >= -15
 subtour(9,4): u(4) - u(9) - 16 x(9,4) >= -15
 subtour(9,5): u(5) - u(9) - 16 x(9,5) >= -15
 subtour(9,6): u(6) - u(9) - 16 x(9,6) >= -15
 subtour(9,7): u(7) - u(9) - 16 x(9,7) >= -15
 subtour(9,8): u(8) - u(9) - 16 x(9,8) >= -15
 subtour(9,10): - u(9) - 16 x(9,10) + u(10) >= -15
 subtour(9,11): - u(9) - 16 x(9,11) + u(11) >= -15
 subtour(9,12): - u(9) - 16 x(9,12) + u(12) >= -15
 subtour(9,13): - u(9) - 16 x(9,13) + u(13) >= -15
 subtour(9,14): - u(9) - 16 x(9,14) + u(14) >= -15
 subtour(9,15): - u(9) - 16 x(9,15) + u(15) >= -15
 subtour(9,16): - u(9) - 16 x(9,16) + u(16) >= -15
 subtour(10,1): u(1) - u(10) - 16 x(10,1) >= -15
 subtour(10,2): u(2) - u(10) - 16 x(10,2) >= -15
 subtour(10,3): u(3) - u(10) - 16 x(10,3) >= -15
 subtour(10,4): u(4) - u(10) - 16 x(10,4) >= -15
 subtour(10,5): u(5) - u(10) - 16 x(10,5) >= -15
 subtour(10,6): u(6) - u(10) - 16 x(10,6) >= -15
 subtour(10,7): u(7) - u(10) - 16 x(10,7) >= -15
 subtour(10,8): u(8) - u(10) - 16 x(10,8) >= -15
 subtour(10,9): u(9) - u(10) - 16 x(10,9) >= -15
 subtour(10,11): - u(10) - 16 x(10,11) + u(11) >= -15
 subtour(10,12): - u(10) - 16 x(10,12) + u(12) >= -15
 subtour(10,13): - u(10) - 16 x(10,13) + u(13) >= -15
 subtour(10,14): - u(10) - 16 x(10,14) + u(14) >= -15
 subtour(10,15): - u(10) - 16 x(10,15) + u(15) >= -15
 subtour(10,16): - u(10) - 16 x(10,16) + u(16) >= -15
 subtour(11,1): u(1) - u(11) - 16 x(11,1) >= -15
 subtour(11,2): u(2) - u(11) - 16 x(11,2) >= -15
 subtour(11,3): u(3) - u(11) - 16 x(11,3) >= -15
 subtour(11,4): u(4) - u(11) - 16 x(11,4) >= -15
 subtour(11,5): u(5) - u(11) - 16 x(11,5) >= -15
 subtour(11,6): u(6) - u(11) - 16 x(11,6) >= -15
 subtour(11,7): u(7) - u(11) - 16 x(11,7) >= -15
 subtour(11,8): u(8) - u(11) - 16 x(11,8) >= -15
 subtour(11,9): u(9) - u(11) - 16 x(11,9) >= -15
 subtour(11,10): u(10) - u(11) - 16 x(11,10) >= -15
 subtour(11,12): - u(11) - 16 x(11,12) + u(12) >= -15
 subtour(11,13): - u(11) - 16 x(11,13) + u(13) >= -15
 subtour(11,14): - u(11) - 16 x(11,14) + u(14) >= -15
 subtour(11,15): - u(11) - 16 x(11,15) + u(15) >= -15
 subtour(11,16): - u(11) - 16 x(11,16) + u(16) >= -15
 subtour(12,1): u(1) - u(12) - 16 x(12,1) >= -15
 subtour(12,2): u(2) - u(12) - 16 x(12,2) >= -15
 subtour(12,3): u(3) - u(12) - 16 x(12,3) >= -15
 subtour(12,4): u(4) - u(12) - 16 x(12,4) >= -15
 subtour(12,5): u(5) - u(12) - 16 x(12,5) >= -15
 subtour(12,6): u(6) - u(12) - 16 x(12,6) >= -15
 subtour(12,7): u(7) - u(12) - 16 x(12,7) >= -15
 subtour(12,8): u(8) - u(12) - 16 x(12,8) >= -15
 subtour(12,9): u(9) - u(12) - 16 x(12,9) >= -15
 subtour(12,10): u(10) - u(12) - 16 x(12,10) >= -15
 subtour(12,11): u(11) - u(12) - 16 x(12,11) >= -15
 subtour(12,13): - u(12) - 16 x(12,13) + u(13) >= -15
 subtour(12,14): - u(12) - 16 x(12,14) + u(14) >= -15
 subtour(12,15): - u(12) - 16 x(12,15) + u(15) >= -15
 subtour(12,16): - u(12) - 16 x(12,16) + u(16) >= -15
 subtour(13,1): u(1) - u(13) - 16 x(13,1) >= -15
 subtour(13,2): u(2) - u(13) - 16 x(13,2) >= -15
 subtour(13,3): u(3) - u(13) - 16 x(13,3) >= -15
 subtour(13,4): u(4) - u(13) - 16 x(13,4) >= -15
 subtour(13,5): u(5) - u(13) - 16 x(13,5) >= -15
 subtour(13,6): u(6) - u(13) - 16 x(13,6) >= -15
 subtour(13,7): u(7) - u(13) - 16 x(13,7) >= -15
 subtour(13,8): u(8) - u(13) - 16 x(13,8) >= -15
 subtour(13,9): u(9) - u(13) - 16 x(13,9) >= -15
 subtour(13,10): u(10) - u(13) - 16 x(13,10) >= -15
 subtour(13,11): u(11) - u(13) - 16 x(13,11) >= -15
 subtour(13,12): u(12) - u(13) - 16 x(13,12) >= -15
 subtour(13,14): - u(13) - 16 x(13,14) + u(14) >= -15
 subtour(13,15): - u(13) - 16 x(13,15) + u(15) >= -15
 subtour(13,16): - u(13) - 16 x(13,16) + u(16) >= -15
 subtour(14,1): u(1) - u(14) - 16 x(14,1) >= -15
 subtour(14,2): u(2) - u(14) - 16 x(14,2) >= -15
 subtour(14,3): u(3) - u(14) - 16 x(14,3) >= -15
 subtour(14,4): u(4) - u(14) - 16 x(14,4) >= -15
 subtour(14,5): u(5) - u(14) - 16 x(14,5) >= -15
 subtour(14,6): u(6) - u(14) - 16 x(14,6) >= -15
 subtour(14,7): u(7) - u(14) - 16 x(14,7) >= -15
 subtour(14,8): u(8) - u(14) - 16 x(14,8) >= -15
 subtour(14,9): u(9) - u(14) - 16 x(14,9) >= -15
 subtour(14,10): u(10) - u(14) - 16 x(14,10) >= -15
 subtour(14,11): u(11) - u(14) - 16 x(14,11) >= -15
 subtour(14,12): u(12) - u(14) - 16 x(14,12) >= -15
 subtour(14,13): u(13) - u(14) - 16 x(14,13) >= -15
 subtour(14,15): - u(14) - 16 x(14,15) + u(15) >= -15
 subtour(14,16): - u(14) - 16 x(14,16) + u(16) >= -15
 subtour(15,1): u(1) - u(15) - 16 x(15,1) >= -15
 subtour(15,2): u(2) - u(15) - 16 x(15,2) >= -15
 subtour(15,3): u(3) - u(15) - 16 x(15,3) >= -15
 subtour(15,4): u(4) - u(15) - 16 x(15,4) >= -15
 subtour(15,5): u(5) - u(15) - 16 x(15,5) >= -15
 subtour(15,6): u(6) - u(15) - 16 x(15,6) >= -15
 subtour(15,7): u(7) - u(15) - 16 x(15,7) >= -15
 subtour(15,8): u(8) - u(15) - 16 x(15,8) >= -15
 subtour(15,9): u(9) - u(15) - 16 x(15,9) >= -15
 subtour(15,10): u(10) - u(15) - 16 x(15,10) >= -15
 subtour(15,11): u(11) - u(15) - 16 x(15,11) >= -15
 subtour(15,12): u(12) - u(15) - 16 x(15,12) >= -15
 subtour(15,13): u(13) - u(15) - 16 x(15,13) >= -15
 subtour(15,14): u(14) - u(15) - 16 x(15,14) >= -15
 subtour(15,16): - u(15) - 16 x(15,16) + u(16) >= -15
 subtour(16,1): u(1) - u(16) - 16 x(16,1) >= -15
 subtour(16,2): u(2) - u(16) - 16 x(16,2) >= -15
 subtour(16,3): u(3) - u(16) - 16 x(16,3) >= -15
 subtour(16,4): u(4) - u(16) - 16 x(16,4) >= -15
 subtour(16,5): u(5) - u(16) - 16 x(16,5) >= -15
 subtour(16,6): u(6) - u(16) - 16 x(16,6) >= -15
 subtour(16,7): u(7) - u(16) - 16 x(16,7) >= -15
 subtour(16,8): u(8) - u(16) - 16 x(16,8) >= -15
 subtour(16,9): u(9) - u(16) - 16 x(16,9) >= -15
 subtour(16,10): u(10) - u(16) - 16 x(16,10) >= -15
 subtour(16,11): u(11) - u(16) - 16 x(16,11) >= -15
 subtour(16,12): u(12) - u(16) - 16 x(16,12) >= -15
 subtour(16,13): u(13) - u(16) - 16 x(16,13) >= -15
 subtour(16,14): u(14) - u(16) - 16 x(16,14) >= -15
 subtour(16,15): u(15) - u(16) - 16 x(16,15) >= -15
Bounds
 u(0) = 0
 1 <= u(1) <= 16
 1 <= u(2) <= 16
 1 <= u(3) <= 16
 1 <= u(4) <= 16
 1 <= u(5) <= 16
 1 <= u(6) <= 16
 1 <= u(7) <= 16
 1 <= u(8) <= 16
 1 <= u(9) <= 16
 1 <= u(10) <= 16
 1 <= u(11) <= 16
 1 <= u(12) <= 16
 1 <= u(13) <= 16
 1 <= u(14) <= 16
 1 <= u(15) <= 16
 1 <= u(16) <= 16
Binaries
 x(0,1) x(0,2) x(0,3) x(0,4) x(0,5) x(0,6) x(0,7) x(0,8) x(0,9) x(0,10)
 x(0,11) x(0,12) x(0,13) x(0,14) x(0,15) x(0,16) x(1,0) x(1,2) x(1,3)
 x(1,4) x(1,5) x(1,6) x(1,7) x(1,8) x(1,9) x(1,10) x(1,11) x(1,12) x(1,13)
 x(1,14) x(1,15) x(1,16) x(2,0) x(2,1) x(2,3) x(2,4) x(2,5) x(2,6) x(2,7)
 x(2,8) x(2,9) x(2,10) x(2,11) x(2,12) x(2,13) x(2,14) x(2,15) x(2,16)
 x(3,0) x(3,1) x(3,2) x(3,4) x(3,5) x(3,6) x(3,7) x(3,8) x(3,9) x(3,10)
 x(3,11) x(3,12) x(3,13) x(3,14) x(3,15) x(3,16) x(4,0) x(4,1) x(4,2)
 x(4,3) x(4,5) x(4,6) x(4,7) x(4,8) x(4,9) x(4,10) x(4,11) x(4,12) x(4,13)
 x(4,14) x(4,15) x(4,16) x(5,0) x(5,1) x(5,2) x(5,3) x(5,4) x(5,6) x(5,7)
 x(5,8) x(5,9) x(5,10) x(5,11) x(5,12) x(5,13) x(5,14) x(5,15) x(5,16)
 x(6,0) x(6,1) x(6,2) x(6,3) x(6,4) x(6,5) x(6,7) x(6,8) x(6,9) x(6,10)
 x(6,11) x(6,12) x(6,13) x(6,14) x(6,15) x(6,16) x(7,0) x(7,1) x(7,2)
 x(7,3) x(7,4) x(7,5) x(7,6) x(7,8) x(7,9) x(7,10) x(7,11) x(7,12) x(7,13)
 x(7,14) x(7,15) x(7,16) x(8,0) x(8,1) x(8,2) x(8,3) x(8,4) x(8,5) x(8,6)
 x(8,7) x(8,9) x(8,10) x(8,11) x(8,12) x(8,13) x(8,14) x(8,15) x(8,16)
 x(9,0) x(9,1) x(9,2) x(9,3) x(9,4) x(9,5) x(9,6) x(9,7) x(9,8) x(9,10)
 x(9,11) x(9,12) x(9,13) x(9,14) x(9,15) x(9,16) x(10,0) x(10,1) x(10,2)
 x(10,3) x(10,4) x(10,5) x(10,6) x(10,7) x(10,8) x(10,9) x(10,11) x(10,12)
 x(10,13) x(10,14) x(10,15) x(10,16) x(11,0) x(11,1) x(11,2) x(11,3)
 x(11,4) x(11,5) x(11,6) x(11,7) x(11,8) x(11,9) x(11,10) x(11,12) x(11,13)
 x(11,14) x(11,15) x(11,16) x(12,0) x(12,1) x(12,2) x(12,3) x(12,4) x(12,5)
 x(12,6) x(12,7) x(12,8) x(12,9) x(12,10) x(12,11) x(12,13) x(12,14)
 x(12,15) x(12,16) x(13,0) x(13,1) x(13,2) x(13,3) x(13,4) x(13,5) x(13,6)
 x(13,7) x(13,8) x(13,9) x(13,10) x(13,11) x(13,12) x(13,14) x(13,15)
 x(13,16) x(14,0) x(14,1) x(14,2) x(14,3) x(14,4) x(14,5) x(14,6) x(14,7)
 x(14,8) x(14,9) x(14,10) x(14,11) x(14,12) x(14,13) x(14,15) x(14,16)
 x(15,0) x(15,1) x(15,2) x(15,3) x(15,4) x(15,5) x(15,6) x(15,7) x(15,8)
 x(15,9) x(15,10) x(15,11) x(15,12) x(15,13) x(15,14) x(15,16) x(16,0)
 x(16,1) x(16,2) x(16,3) x(16,4) x(16,5) x(16,6) x(16,7) x(16,8) x(16,9)
 x(16,10) x(16,11) x(16,12) x(16,13) x(16,14) x(16,15)
Generals
 u(0) u(1) u(2) u(3) u(4) u(5) u(6) u(7) u(8) u(9) u(10) u(11) u(12) u(13)
 u(14) u(15) u(16)
End
